50
1000
240
240
240
239
238
238
237
231
229
228
228
221
219
218
216
213
209
209
206
202
202
202
201
201
199
197
197
196
190
189
189
186
184
184
181
178
178
176
176
174
174
174
168
168
167
164
164
164
163
163
